(declare-const p3 Real)
(declare-const p6 Real)
(declare-const p5 Real)
(declare-const fee_bl Real)
(declare-const income Real)
(declare-const p4 Real)
(declare-const p2 Real)
(declare-const p1 Real)
(assert (= p1 (* 0.015 (ite (> income 5500) 5500 income))))
(assert (= p2 (ite (> income 5500) (* 0.032 (- (ite (> income 16500) 16500 income) 5500)) 0)))
(assert (= p3 (ite (> income 16500) (* 0.043 (- (ite (> income 33500) 33500 income) 16500)) 0)))
(assert (= p4 (ite (> income 33500) (* 0.047 (- (ite (> income 66500) 66500 income) 33500)) 0)))
(assert (= p5 (ite (> income 66500) (* 0.049 (- (ite (> income 210000) 210000 income) 66500)) 0)))
(assert (= p6 (ite (> income 210000) (* 0.059 (- income 210000)) 0)))
(assert (= fee_bl (+ (+ (+ (+ (+ p1 p2) p3) p4) p5) p6)))